; PUSH cw_2 SLOAD CALLVALUE SWAP1 PUSH cw_4 DUP1 => CALLVALUE PUSH cw_2 SLOAD PUSH cw_4 PUSH cw_4
(set-option :produce-proofs true)
; 
(set-info :status unknown)
(declare-fun storage_t ((_ BitVec 256) (_ BitVec 256) (_ BitVec 256) (_ BitVec 256) Int (_ BitVec 256)) (_ BitVec 256))
(declare-fun w_4 () (_ BitVec 256))
(declare-fun w_2 () (_ BitVec 256))
(declare-fun storage_s ((_ BitVec 256) (_ BitVec 256) (_ BitVec 256) (_ BitVec 256) Int (_ BitVec 256)) (_ BitVec 256))
(declare-fun exc_halt_t (Int) Bool)
(declare-fun exc_halt_s (Int) Bool)
(declare-fun sc_t (Int) (_ BitVec 6))
(declare-fun stack_t ((_ BitVec 256) (_ BitVec 256) (_ BitVec 256) (_ BitVec 256) Int (_ BitVec 6)) (_ BitVec 256))
(declare-fun stack_s ((_ BitVec 256) (_ BitVec 256) (_ BitVec 256) (_ BitVec 256) Int (_ BitVec 6)) (_ BitVec 256))
(declare-fun sc_s (Int) (_ BitVec 6))
(declare-fun used_gas_t ((_ BitVec 256) (_ BitVec 256) (_ BitVec 256) (_ BitVec 256) Int) Int)
(declare-fun used_gas_s ((_ BitVec 256) (_ BitVec 256) (_ BitVec 256) (_ BitVec 256) Int) Int)
(assert
 (exists ((x_SLOAD_0 (_ BitVec 256)) (x_CALLVALUE (_ BitVec 256)) )(let (($x1517 (forall ((w (_ BitVec 256)) )(let ((?x7271 (storage_t x_SLOAD_0 w_2 w_4 x_CALLVALUE 5 w)))
 (let ((?x1214 (storage_s x_SLOAD_0 w_2 w_4 x_CALLVALUE 6 w)))
 (= ?x1214 ?x7271))))
 ))
 (let (($x886 (exc_halt_t 5)))
 (let (($x772 (exc_halt_s 6)))
 (let (($x889 (= $x772 $x886)))
 (let (($x2153 (forall ((n (_ BitVec 6)) )(let ((?x4395 (stack_t x_SLOAD_0 w_2 w_4 x_CALLVALUE 5 n)))
 (let ((?x4943 (stack_s x_SLOAD_0 w_2 w_4 x_CALLVALUE 6 n)))
 (let (($x589 (= ?x4943 ?x4395)))
 (or $x589 (bvsle (sc_t 5) n))))))
 ))
 (let ((?x919 (sc_t 5)))
 (let ((?x926 (sc_s 6)))
 (let (($x929 (= ?x926 ?x919)))
 (let ((?x843 (used_gas_t x_SLOAD_0 w_2 w_4 x_CALLVALUE 0)))
 (let ((?x5470 (used_gas_s x_SLOAD_0 w_2 w_4 x_CALLVALUE 0)))
 (let (($x5802 (= ?x5470 ?x843)))
 (let (($x1799 (forall ((w (_ BitVec 256)) )(let ((?x1902 (storage_t x_SLOAD_0 w_2 w_4 x_CALLVALUE 0 w)))
 (let ((?x1412 (storage_s x_SLOAD_0 w_2 w_4 x_CALLVALUE 0 w)))
 (= ?x1412 ?x1902))))
 ))
 (let (($x56 (exc_halt_t 0)))
 (let (($x57 (exc_halt_s 0)))
 (let (($x58 (= $x57 $x56)))
 (let (($x9674 (forall ((n (_ BitVec 6)) )(let ((?x1536 (stack_t x_SLOAD_0 w_2 w_4 x_CALLVALUE 0 n)))
 (let ((?x2048 (stack_s x_SLOAD_0 w_2 w_4 x_CALLVALUE 0 n)))
 (let (($x7569 (= ?x2048 ?x1536)))
 (let ((?x63 (sc_t 0)))
 (let (($x4379 (bvsle ?x63 n)))
 (or $x4379 $x7569)))))))
 ))
 (let ((?x63 (sc_t 0)))
 (let ((?x72 (sc_s 0)))
 (let (($x73 (= ?x72 ?x63)))
 (let (($x3723 (exc_halt_t 4)))
 (let (($x1150 (or $x3723 (not (= ((_ extract 6 6) (bvadd (_ bv1 7) (concat (_ bv0 1) (sc_t 4)))) (_ bv0 1))))))
 (let (($x1362 (forall ((w (_ BitVec 256)) )(let ((?x435 (storage_t x_SLOAD_0 w_2 w_4 x_CALLVALUE 4 w)))
 (let ((?x7271 (storage_t x_SLOAD_0 w_2 w_4 x_CALLVALUE 5 w)))
 (= ?x7271 ?x435))))
 ))
 (let (($x1612 (forall ((n (_ BitVec 6)) )(let ((?x4599 (stack_t x_SLOAD_0 w_2 w_4 x_CALLVALUE 4 n)))
 (let ((?x4395 (stack_t x_SLOAD_0 w_2 w_4 x_CALLVALUE 5 n)))
 (or (= ?x4395 ?x4599) (bvsle (sc_t 4) n)))))
 ))
 (let (($x8850 (= (used_gas_t x_SLOAD_0 w_2 w_4 x_CALLVALUE 5) (+ 3 (used_gas_t x_SLOAD_0 w_2 w_4 x_CALLVALUE 4)))))
 (let (($x10336 (exc_halt_t 3)))
 (let (($x1256 (or $x10336 (not (= ((_ extract 6 6) (bvadd (_ bv1 7) (concat (_ bv0 1) (sc_t 3)))) (_ bv0 1))))))
 (let (($x1432 (forall ((w (_ BitVec 256)) )(let ((?x827 (storage_t x_SLOAD_0 w_2 w_4 x_CALLVALUE 3 w)))
 (let ((?x435 (storage_t x_SLOAD_0 w_2 w_4 x_CALLVALUE 4 w)))
 (= ?x435 ?x827))))
 ))
 (let (($x8350 (forall ((n (_ BitVec 6)) )(let ((?x4382 (stack_t x_SLOAD_0 w_2 w_4 x_CALLVALUE 3 n)))
 (let ((?x4599 (stack_t x_SLOAD_0 w_2 w_4 x_CALLVALUE 4 n)))
 (or (bvsle (sc_t 3) n) (= ?x4599 ?x4382)))))
 ))
 (let ((?x5377 (used_gas_t x_SLOAD_0 w_2 w_4 x_CALLVALUE 4)))
 (let (($x5923 (= $x10336 (or (exc_halt_t 2) (not (bvsle (_ bv0 6) (bvadd (_ bv63 6) (sc_t 2))))))))
 (let (($x8186 (forall ((w (_ BitVec 256)) )(let ((?x2293 (storage_t x_SLOAD_0 w_2 w_4 x_CALLVALUE 2 w)))
 (let ((?x827 (storage_t x_SLOAD_0 w_2 w_4 x_CALLVALUE 3 w)))
 (= ?x827 ?x2293))))
 ))
 (let (($x1900 (forall ((n (_ BitVec 6)) )(let ((?x8117 (stack_t x_SLOAD_0 w_2 w_4 x_CALLVALUE 2 n)))
 (let ((?x4382 (stack_t x_SLOAD_0 w_2 w_4 x_CALLVALUE 3 n)))
 (or (bvsle (bvadd (_ bv63 6) (sc_t 2)) n) (= ?x4382 ?x8117)))))
 ))
 (let ((?x1678 (used_gas_t x_SLOAD_0 w_2 w_4 x_CALLVALUE 3)))
 (let ((?x4222 (storage_t x_SLOAD_0 w_2 w_4 x_CALLVALUE 2 (stack_t x_SLOAD_0 w_2 w_4 x_CALLVALUE 2 (bvadd (_ bv63 6) (sc_t 2))))))
 (let (($x8119 (= (stack_t x_SLOAD_0 w_2 w_4 x_CALLVALUE 3 (bvadd (_ bv63 6) (sc_t 3))) ?x4222)))
 (let (($x1920 (exc_halt_t 1)))
 (let (($x1286 (or $x1920 (not (= ((_ extract 6 6) (bvadd (_ bv1 7) (concat (_ bv0 1) (sc_t 1)))) (_ bv0 1))))))
 (let (($x903 (exc_halt_t 2)))
 (let (($x1385 (forall ((w (_ BitVec 256)) )(let ((?x617 (storage_t x_SLOAD_0 w_2 w_4 x_CALLVALUE 1 w)))
 (let ((?x2293 (storage_t x_SLOAD_0 w_2 w_4 x_CALLVALUE 2 w)))
 (= ?x2293 ?x617))))
 ))
 (let (($x1068 (forall ((n (_ BitVec 6)) )(let ((?x8104 (stack_t x_SLOAD_0 w_2 w_4 x_CALLVALUE 1 n)))
 (let ((?x8117 (stack_t x_SLOAD_0 w_2 w_4 x_CALLVALUE 2 n)))
 (let ((?x4023 (sc_t 1)))
 (let (($x2031 (bvsle ?x4023 n)))
 (or $x2031 (= ?x8117 ?x8104)))))))
 ))
 (let ((?x5761 (used_gas_t x_SLOAD_0 w_2 w_4 x_CALLVALUE 2)))
 (let (($x4795 (= $x1920 (or $x56 (not (= ((_ extract 6 6) (bvadd (_ bv1 7) (concat (_ bv0 1) ?x63))) (_ bv0 1)))))))
 (let (($x8171 (forall ((w (_ BitVec 256)) )(let ((?x1902 (storage_t x_SLOAD_0 w_2 w_4 x_CALLVALUE 0 w)))
 (let ((?x617 (storage_t x_SLOAD_0 w_2 w_4 x_CALLVALUE 1 w)))
 (= ?x617 ?x1902))))
 ))
 (let (($x7644 (forall ((n (_ BitVec 6)) )(let ((?x1536 (stack_t x_SLOAD_0 w_2 w_4 x_CALLVALUE 0 n)))
 (let ((?x8104 (stack_t x_SLOAD_0 w_2 w_4 x_CALLVALUE 1 n)))
 (let ((?x63 (sc_t 0)))
 (let (($x4379 (bvsle ?x63 n)))
 (or $x4379 (= ?x8104 ?x1536)))))))
 ))
 (let ((?x4023 (sc_t 1)))
 (let (($x223 (= ?x4023 (bvadd (_ bv1 6) ?x63))))
 (let (($x3979 (exc_halt_s 5)))
 (let (($x2109 (or $x3979 (not (bvsle (_ bv0 6) (bvadd (_ bv63 6) (sc_s 5)))) (not (= ((_ extract 6 6) (bvadd (_ bv1 7) (concat (_ bv0 1) (sc_s 5)))) (_ bv0 1))))))
 (let (($x6135 (forall ((w (_ BitVec 256)) )(let ((?x1166 (storage_s x_SLOAD_0 w_2 w_4 x_CALLVALUE 5 w)))
 (let ((?x1214 (storage_s x_SLOAD_0 w_2 w_4 x_CALLVALUE 6 w)))
 (= ?x1214 ?x1166))))
 ))
 (let (($x5799 (forall ((n (_ BitVec 6)) )(let ((?x7480 (stack_s x_SLOAD_0 w_2 w_4 x_CALLVALUE 5 n)))
 (let ((?x4943 (stack_s x_SLOAD_0 w_2 w_4 x_CALLVALUE 6 n)))
 (or (= ?x4943 ?x7480) (bvsle (bvadd (_ bv63 6) (sc_s 5)) n)))))
 ))
 (let (($x1323 (= (used_gas_s x_SLOAD_0 w_2 w_4 x_CALLVALUE 6) (+ 3 (used_gas_s x_SLOAD_0 w_2 w_4 x_CALLVALUE 5)))))
 (let ((?x805 (sc_s 5)))
 (let ((?x8276 (bvadd (_ bv63 6) ?x805)))
 (let ((?x2676 (stack_s x_SLOAD_0 w_2 w_4 x_CALLVALUE 5 ?x8276)))
 (let (($x64 (exc_halt_s 4)))
 (let (($x1405 (or $x64 (not (= ((_ extract 6 6) (bvadd (_ bv1 7) (concat (_ bv0 1) (sc_s 4)))) (_ bv0 1))))))
 (let (($x3349 (forall ((w (_ BitVec 256)) )(let ((?x3662 (storage_s x_SLOAD_0 w_2 w_4 x_CALLVALUE 4 w)))
 (let ((?x1166 (storage_s x_SLOAD_0 w_2 w_4 x_CALLVALUE 5 w)))
 (= ?x1166 ?x3662))))
 ))
 (let (($x2047 (forall ((n (_ BitVec 6)) )(let ((?x1514 (stack_s x_SLOAD_0 w_2 w_4 x_CALLVALUE 4 n)))
 (let ((?x7480 (stack_s x_SLOAD_0 w_2 w_4 x_CALLVALUE 5 n)))
 (or (bvsle (sc_s 4) n) (= ?x7480 ?x1514)))))
 ))
 (let ((?x11004 (used_gas_s x_SLOAD_0 w_2 w_4 x_CALLVALUE 5)))
 (let (($x5849 (= $x64 (or (exc_halt_s 3) (not (bvsle (_ bv0 6) (bvadd (_ bv62 6) (sc_s 3))))))))
 (let (($x6731 (forall ((w (_ BitVec 256)) )(let ((?x9264 (storage_s x_SLOAD_0 w_2 w_4 x_CALLVALUE 3 w)))
 (let ((?x3662 (storage_s x_SLOAD_0 w_2 w_4 x_CALLVALUE 4 w)))
 (= ?x3662 ?x9264))))
 ))
 (let (($x7896 (forall ((n (_ BitVec 6)) )(let ((?x1719 (stack_s x_SLOAD_0 w_2 w_4 x_CALLVALUE 3 n)))
 (let ((?x1514 (stack_s x_SLOAD_0 w_2 w_4 x_CALLVALUE 4 n)))
 (or (= ?x1514 ?x1719) (bvsle (bvadd (_ bv62 6) (sc_s 3)) n)))))
 ))
 (let ((?x9263 (used_gas_s x_SLOAD_0 w_2 w_4 x_CALLVALUE 4)))
 (let (($x5577 (= (stack_s x_SLOAD_0 w_2 w_4 x_CALLVALUE 4 (bvadd (_ bv62 6) (sc_s 4))) (stack_s x_SLOAD_0 w_2 w_4 x_CALLVALUE 3 (bvadd (_ bv63 6) (sc_s 3))))))
 (let (($x4254 (= (stack_s x_SLOAD_0 w_2 w_4 x_CALLVALUE 4 (bvadd (_ bv63 6) (sc_s 4))) (stack_s x_SLOAD_0 w_2 w_4 x_CALLVALUE 3 (bvadd (_ bv62 6) (sc_s 3))))))
 (let (($x247 (exc_halt_s 2)))
 (let (($x1439 (or $x247 (not (= ((_ extract 6 6) (bvadd (_ bv1 7) (concat (_ bv0 1) (sc_s 2)))) (_ bv0 1))))))
 (let (($x292 (exc_halt_s 3)))
 (let (($x3460 (forall ((w (_ BitVec 256)) )(let ((?x6723 (storage_s x_SLOAD_0 w_2 w_4 x_CALLVALUE 2 w)))
 (let ((?x9264 (storage_s x_SLOAD_0 w_2 w_4 x_CALLVALUE 3 w)))
 (= ?x9264 ?x6723))))
 ))
 (let (($x5597 (forall ((n (_ BitVec 6)) )(let ((?x6245 (stack_s x_SLOAD_0 w_2 w_4 x_CALLVALUE 2 n)))
 (let ((?x1719 (stack_s x_SLOAD_0 w_2 w_4 x_CALLVALUE 3 n)))
 (or (= ?x1719 ?x6245) (bvsle (sc_s 2) n)))))
 ))
 (let ((?x1912 (used_gas_s x_SLOAD_0 w_2 w_4 x_CALLVALUE 3)))
 (let (($x4877 (= $x247 (or (exc_halt_s 1) (not (bvsle (_ bv0 6) (bvadd (_ bv63 6) (sc_s 1))))))))
 (let (($x2098 (forall ((w (_ BitVec 256)) )(let ((?x4332 (storage_s x_SLOAD_0 w_2 w_4 x_CALLVALUE 1 w)))
 (let ((?x6723 (storage_s x_SLOAD_0 w_2 w_4 x_CALLVALUE 2 w)))
 (= ?x6723 ?x4332))))
 ))
 (let (($x1717 (forall ((n (_ BitVec 6)) )(let ((?x154 (sc_s 1)))
 (let ((?x2733 (bvadd (_ bv63 6) ?x154)))
 (let (($x9668 (bvsle ?x2733 n)))
 (let ((?x1956 (stack_s x_SLOAD_0 w_2 w_4 x_CALLVALUE 1 n)))
 (let ((?x6245 (stack_s x_SLOAD_0 w_2 w_4 x_CALLVALUE 2 n)))
 (or (= ?x6245 ?x1956) $x9668)))))))
 ))
 (let ((?x154 (sc_s 1)))
 (let ((?x218 (sc_s 2)))
 (let (($x8328 (= ?x218 ?x154)))
 (let ((?x8020 (used_gas_s x_SLOAD_0 w_2 w_4 x_CALLVALUE 2)))
 (let ((?x4523 (storage_s x_SLOAD_0 w_2 w_4 x_CALLVALUE 1 (stack_s x_SLOAD_0 w_2 w_4 x_CALLVALUE 1 (bvadd (_ bv63 6) ?x154)))))
 (let (($x189 (exc_halt_s 1)))
 (let (($x9367 (= $x189 (or $x57 (not (= ((_ extract 6 6) (bvadd (_ bv1 7) (concat (_ bv0 1) ?x72))) (_ bv0 1)))))))
 (let (($x5767 (forall ((w (_ BitVec 256)) )(let ((?x1412 (storage_s x_SLOAD_0 w_2 w_4 x_CALLVALUE 0 w)))
 (let ((?x4332 (storage_s x_SLOAD_0 w_2 w_4 x_CALLVALUE 1 w)))
 (= ?x4332 ?x1412))))
 ))
 (let (($x1340 (forall ((n (_ BitVec 6)) )(let ((?x72 (sc_s 0)))
 (let (($x7754 (bvsle ?x72 n)))
 (let ((?x2048 (stack_s x_SLOAD_0 w_2 w_4 x_CALLVALUE 0 n)))
 (let ((?x1956 (stack_s x_SLOAD_0 w_2 w_4 x_CALLVALUE 1 n)))
 (or (= ?x1956 ?x2048) $x7754))))))
 ))
 (let (($x7187 (= ?x154 (bvadd (_ bv1 6) ?x72))))
 (let (($x614 (forall ((w (_ BitVec 256)) )(let (($x2605 (= w (stack_s x_SLOAD_0 w_2 w_4 x_CALLVALUE 1 (bvadd (_ bv63 6) (sc_s 1))))))
 (let ((?x1412 (storage_s x_SLOAD_0 w_2 w_4 x_CALLVALUE 0 w)))
 (= ?x1412 (ite $x2605 x_SLOAD_0 (_ bv0 256))))))
 ))
 (let (($x7815 (= ?x5470 0)))
 (let (($x6677 (not $x57)))
 (let (($x136 (= ?x72 (_ bv0 6))))
 (and $x136 $x6677 $x7815 $x614 (= (stack_s x_SLOAD_0 w_2 w_4 x_CALLVALUE 1 ?x72) w_2) (= (used_gas_s x_SLOAD_0 w_2 w_4 x_CALLVALUE 1) (+ 3 ?x5470)) $x7187 $x1340 $x5767 $x9367 (= (stack_s x_SLOAD_0 w_2 w_4 x_CALLVALUE 2 (bvadd (_ bv63 6) ?x218)) ?x4523) (= ?x8020 (+ 200 (used_gas_s x_SLOAD_0 w_2 w_4 x_CALLVALUE 1))) $x8328 $x1717 $x2098 $x4877 (= (stack_s x_SLOAD_0 w_2 w_4 x_CALLVALUE 3 ?x218) x_CALLVALUE) (= ?x1912 (+ 2 ?x8020)) (= (sc_s 3) (bvadd (_ bv1 6) ?x218)) $x5597 $x3460 (= $x292 $x1439) $x4254 $x5577 (= ?x9263 (+ 3 ?x1912)) (= (sc_s 4) (sc_s 3)) $x7896 $x6731 $x5849 (= (stack_s x_SLOAD_0 w_2 w_4 x_CALLVALUE 5 (sc_s 4)) w_4) (= ?x11004 (+ 3 ?x9263)) (= ?x805 (bvadd (_ bv1 6) (sc_s 4))) $x2047 $x3349 (= $x3979 $x1405) (= (stack_s x_SLOAD_0 w_2 w_4 x_CALLVALUE 6 (bvadd (_ bv63 6) ?x926)) ?x2676) (= (stack_s x_SLOAD_0 w_2 w_4 x_CALLVALUE 6 ?x8276) ?x2676) $x1323 (= ?x926 (bvadd (_ bv1 6) ?x805)) $x5799 $x6135 (= $x772 $x2109) (= (stack_t x_SLOAD_0 w_2 w_4 x_CALLVALUE 1 ?x63) x_CALLVALUE) (= (used_gas_t x_SLOAD_0 w_2 w_4 x_CALLVALUE 1) (+ 2 ?x843)) $x223 $x7644 $x8171 $x4795 (= (stack_t x_SLOAD_0 w_2 w_4 x_CALLVALUE 2 ?x4023) w_2) (= ?x5761 (+ 3 (used_gas_t x_SLOAD_0 w_2 w_4 x_CALLVALUE 1))) (= (sc_t 2) (bvadd (_ bv1 6) ?x4023)) $x1068 $x1385 (= $x903 $x1286) $x8119 (= ?x1678 (+ 200 ?x5761)) (= (sc_t 3) (sc_t 2)) $x1900 $x8186 $x5923 (= (stack_t x_SLOAD_0 w_2 w_4 x_CALLVALUE 4 (sc_t 3)) w_4) (= ?x5377 (+ 3 ?x1678)) (= (sc_t 4) (bvadd (_ bv1 6) (sc_t 3))) $x8350 $x1432 (= $x3723 $x1256) (= (stack_t x_SLOAD_0 w_2 w_4 x_CALLVALUE 5 (sc_t 4)) w_4) $x8850 (= ?x919 (bvadd (_ bv1 6) (sc_t 4))) $x1612 $x1362 (= $x886 $x1150) $x73 $x9674 $x58 $x1799 $x5802 (not (and $x929 $x2153 $x889 $x1517))))))))))))))))))))))))))))))))))))))))))))))))))))))))))))))))))))))))))))))))))))))))))))
 )
(check-sat)
(get-proof)
